60
1066
5
51
51
76
25
63
0 1
0 2
0 3
0 4
0 5
0 8
0 10
0 14
0 15
0 16
0 17
0 18
0 19
0 20
0 21
0 22
0 23
0 24
0 25
0 26
0 27
0 30
0 31
0 32
0 33
0 34
0 35
0 36
0 37
0 38
0 40
0 42
0 43
0 44
0 45
0 46
0 47
0 48
0 50
0 51
0 53
0 55
0 56
0 58
0 59
1 2
1 3
1 5
1 6
1 8
1 9
1 10
1 12
1 14
1 15
1 16
1 17
1 18
1 20
1 21
1 22
1 24
1 25
1 26
1 31
1 33
1 34
1 35
1 36
1 37
1 38
1 40
1 41
1 44
1 46
1 47
1 48
1 49
1 51
1 53
1 54
1 55
1 56
1 57
2 3
2 6
2 7
2 8
2 10
2 12
2 14
2 16
2 17
2 18
2 19
2 20
2 21
2 22
2 23
2 24
2 26
2 27
2 28
2 29
2 31
2 33
2 34
2 35
2 36
2 37
2 42
2 43
2 44
2 49
2 51
2 53
2 56
2 57
2 58
2 59
3 4
3 6
3 7
3 8
3 9
3 11
3 12
3 13
3 15
3 19
3 20
3 21
3 23
3 24
3 25
3 28
3 29
3 30
3 32
3 34
3 35
3 37
3 38
3 39
3 40
3 41
3 42
3 44
3 45
3 46
3 48
3 49
3 50
3 51
3 52
3 53
3 54
3 55
3 57
3 59
4 7
4 8
4 10
4 11
4 12
4 15
4 16
4 17
4 18
4 19
4 21
4 23
4 25
4 26
4 29
4 31
4 32
4 34
4 35
4 36
4 40
4 42
4 44
4 46
4 48
4 49
4 52
4 53
4 54
4 56
5 7
5 8
5 9
5 10
5 11
5 12
5 13
5 14
5 15
5 16
5 17
5 19
5 20
5 25
5 26
5 29
5 37
5 39
5 40
5 41
5 42
5 44
5 45
5 48
5 49
5 50
5 51
5 52
5 56
5 57
5 59
6 7
6 9
6 12
6 13
6 14
6 15
6 18
6 19
6 20
6 22
6 23
6 24
6 25
6 26
6 27
6 28
6 30
6 31
6 32
6 35
6 36
6 42
6 43
6 46
6 47
6 48
6 49
6 51
6 55
6 57
6 59
7 9
7 13
7 14
7 15
7 16
7 17
7 18
7 19
7 20
7 21
7 22
7 24
7 25
7 26
7 27
7 28
7 29
7 31
7 32
7 34
7 35
7 38
7 39
7 40
7 41
7 43
7 46
7 47
7 48
7 54
7 55
7 56
7 57
7 59
8 9
8 10
8 11
8 12
8 13
8 14
8 18
8 20
8 21
8 22
8 25
8 26
8 27
8 29
8 32
8 34
8 35
8 38
8 39
8 40
8 42
8 45
8 47
8 48
8 50
8 51
8 53
8 54
8 55
8 56
8 58
9 12
9 13
9 14
9 16
9 17
9 18
9 21
9 22
9 24
9 25
9 27
9 29
9 30
9 31
9 32
9 33
9 34
9 35
9 37
9 39
9 42
9 43
9 44
9 46
9 49
9 52
9 53
9 54
9 56
9 57
9 58
10 11
10 13
10 14
10 18
10 19
10 25
10 26
10 27
10 28
10 29
10 30
10 33
10 37
10 38
10 39
10 41
10 44
10 45
10 46
10 48
10 50
10 51
10 52
10 53
10 54
10 59
11 12
11 13
11 14
11 15
11 16
11 17
11 19
11 20
11 22
11 24
11 25
11 26
11 27
11 28
11 29
11 30
11 31
11 33
11 34
11 37
11 38
11 39
11 40
11 41
11 43
11 45
11 46
11 47
11 48
11 49
11 50
11 51
11 52
11 53
11 55
12 13
12 14
12 16
12 18
12 19
12 20
12 22
12 24
12 25
12 27
12 28
12 30
12 32
12 33
12 34
12 35
12 39
12 42
12 43
12 46
12 47
12 48
12 49
12 51
12 52
12 53
12 55
12 56
13 14
13 16
13 17
13 18
13 19
13 21
13 22
13 23
13 25
13 27
13 28
13 29
13 30
13 31
13 32
13 34
13 35
13 40
13 41
13 44
13 46
13 47
13 49
13 50
13 54
13 57
14 15
14 16
14 18
14 19
14 22
14 23
14 26
14 27
14 29
14 31
14 32
14 37
14 38
14 39
14 40
14 42
14 43
14 47
14 49
14 52
14 54
14 55
14 57
14 58
14 59
15 16
15 17
15 18
15 20
15 21
15 22
15 23
15 24
15 26
15 27
15 28
15 29
15 30
15 32
15 33
15 34
15 35
15 36
15 38
15 39
15 40
15 42
15 43
15 47
15 48
15 49
15 50
15 57
15 58
15 59
16 17
16 18
16 19
16 20
16 21
16 24
16 25
16 26
16 27
16 29
16 31
16 33
16 34
16 35
16 36
16 38
16 40
16 41
16 43
16 44
16 47
16 48
16 53
16 54
16 55
16 56
16 57
16 59
17 20
17 21
17 23
17 24
17 28
17 29
17 30
17 31
17 33
17 34
17 35
17 42
17 46
17 49
17 50
17 53
17 54
17 56
17 58
17 59
18 21
18 22
18 24
18 25
18 26
18 27
18 28
18 29
18 31
18 32
18 34
18 37
18 39
18 40
18 41
18 42
18 44
18 45
18 48
18 49
19 22
19 23
19 24
19 25
19 28
19 29
19 30
19 32
19 33
19 34
19 35
19 37
19 38
19 40
19 41
19 43
19 48
19 51
19 52
19 54
19 57
19 59
20 22
20 26
20 32
20 35
20 36
20 37
20 38
20 40
20 42
20 43
20 44
20 45
20 46
20 47
20 49
20 50
20 52
20 53
20 55
20 57
20 58
20 59
21 22
21 25
21 27
21 29
21 30
21 32
21 34
21 35
21 36
21 38
21 39
21 41
21 42
21 43
21 48
21 54
21 55
21 56
21 58
21 59
22 23
22 24
22 25
22 26
22 27
22 31
22 32
22 33
22 34
22 35
22 37
22 38
22 39
22 40
22 41
22 47
22 48
22 50
22 55
22 56
22 58
22 59
23 24
23 26
23 27
23 28
23 29
23 30
23 31
23 33
23 34
23 36
23 37
23 42
23 44
23 46
23 47
23 48
23 49
23 50
23 53
23 54
23 56
23 58
23 59
24 25
24 26
24 27
24 28
24 29
24 30
24 32
24 34
24 35
24 36
24 37
24 38
24 40
24 41
24 42
24 43
24 44
24 45
24 46
24 47
24 48
24 51
24 52
24 53
24 54
25 26
25 30
25 31
25 32
25 33
25 34
25 35
25 37
25 39
25 40
25 42
25 43
25 44
25 45
25 46
25 47
25 49
25 50
25 51
25 53
25 54
25 55
25 56
25 57
25 59
26 28
26 29
26 31
26 32
26 34
26 36
26 40
26 42
26 43
26 44
26 45
26 46
26 47
26 48
26 50
26 51
26 52
26 54
26 55
26 56
27 30
27 31
27 32
27 33
27 35
27 36
27 38
27 39
27 40
27 44
27 45
27 49
27 53
27 54
27 55
27 56
27 58
28 29
28 33
28 35
28 38
28 39
28 42
28 46
28 50
28 52
28 54
28 55
28 56
28 57
28 58
29 32
29 34
29 35
29 36
29 37
29 40
29 41
29 46
29 47
29 50
29 53
29 57
29 58
29 59
30 33
30 34
30 37
30 39
30 40
30 42
30 43
30 44
30 45
30 46
30 47
30 48
30 49
30 50
30 51
30 55
30 56
30 57
30 58
31 32
31 34
31 35
31 38
31 41
31 42
31 44
31 45
31 46
31 48
31 50
31 51
31 53
31 55
31 56
31 57
32 33
32 34
32 35
32 36
32 39
32 41
32 43
32 44
32 45
32 46
32 49
32 50
32 51
32 54
32 55
32 57
32 58
32 59
33 35
33 36
33 37
33 38
33 41
33 42
33 43
33 46
33 47
33 48
33 50
33 51
33 54
33 56
33 58
33 59
34 40
34 41
34 46
34 50
34 51
34 55
34 57
34 59
35 37
35 38
35 40
35 41
35 42
35 43
35 44
35 47
35 48
35 49
35 52
35 53
35 54
35 55
35 56
35 58
35 59
36 39
36 40
36 42
36 43
36 44
36 45
36 46
36 47
36 49
36 50
36 52
36 53
36 56
36 57
37 39
37 42
37 43
37 48
37 51
37 53
37 54
37 55
37 56
37 59
38 39
38 41
38 42
38 44
38 45
38 46
38 48
38 50
38 51
38 55
38 57
38 59
39 40
39 41
39 43
39 45
39 50
39 52
39 53
39 58
39 59
40 41
40 42
40 43
40 44
40 49
40 51
40 52
40 54
40 58
40 59
41 44
41 45
41 46
41 49
41 51
41 53
41 54
41 55
41 57
41 58
41 59
42 43
42 44
42 49
42 50
42 51
42 53
42 56
42 58
43 44
43 46
43 47
43 48
43 49
43 51
43 52
43 53
43 54
43 55
43 57
43 58
43 59
44 46
44 47
44 49
44 50
44 52
44 53
44 54
44 56
44 59
45 46
45 48
45 50
45 51
45 52
45 53
45 55
45 56
45 57
45 58
45 59
46 47
46 49
46 51
46 52
46 53
46 57
46 59
47 48
47 49
47 50
47 51
47 52
47 53
47 54
47 55
47 57
47 58
47 59
48 49
48 51
48 52
48 55
48 56
48 58
48 59
49 50
49 51
49 52
49 53
49 55
49 59
50 51
50 53
50 54
50 55
50 59
51 54
51 55
51 56
51 57
51 58
51 59
52 53
52 55
52 56
53 55
53 59
54 56
54 59
55 57
55 58
55 59
56 58
57 58
58 59
13 11 44 10 7 3 5 50 19 42 53 1
59 31 2 58 27 35 56 28 57 4 23 24
48 37 0 18 22 40 34 29 8 38 30 12
47 16 9 33 54 52 43 17 25 32 26 21
55 14 36 45 46 51 41 39 15 20 6 49
